4 5 1.0 0 0 0 0 4099 4099
0 1 0 0 1
0 0 5 -1 1 2 17 -1 1 3 16 -1 1 5 5 -1 1 1 9 -1 1 4 20 
0 0 5 -1 1 3 19 -1 1 5 7 -1 1 2 19 -1 1 1 6 -1 1 4 20 
0 0 5 -1 1 1 12 -1 1 4 9 -1 1 5 6 -1 1 2 20 -1 1 3 19 
0 0 5 -1 1 1 16 -1 1 3 14 -1 1 5 19 -1 1 4 6 -1 1 2 6 
